54, 4461
1568, 4862
2363, 3543
2771, 4722
1316, 3566
5880, 3125
1570, 4820
1586, 3098
2338, 1202
1100, 1233
5747, 2603
3436, 2383
4112, 1962
2120, 2740
4013, 1514
5033, 4386
3530, 2546
5575, 4227
5808, 4138
5083, 3070
2178, 4008
5313, 3548
2556, 1466
5108, 2064
2433, 3947
2068, 4953
4588, 3587
5572, 4173
3949, 1990
5299, 3507
5824, 4907
5450, 4872
5308, 1111
1484, 3154
1278, 4062
1006, 4904
4079, 2279
3636, 2003
4789, 3550
3291, 3421
5072, 2866
4565, 2025
2046, 2063
4395, 2486
2819, 3242
1021, 4407
3364, 1472
3551, 1623
5913, 4797
5824, 1019
1224, 2534
1269, 4134
5879, 2886
3862, 4101
1385, 4070